159
0 38 155 153 35 93 96 129 113 27 
120 18 134 57 72 136 67 36 115 11 
45 137 37 116 43 142 87 138 47 46 
17 9 53 42 29 70 6 10 111 100 
139 84 135 23 125 89 49 148 15 140 
119 1 145 54 26 109 82 28 141 110 
143 7 60 127 64 121 79 112 75 41 
69 2 105 81 124 25 80 101 90 131 
73 3 133 66 91 108 123 68 158 98 
85 14 126 55 78 76 86 83 59 30 
147 4 33 114 150 118 77 61 146 44 
21 31 94 132 20 65 71 154 24 5 
62 22 63 157 40 74 103 39 8 34 
56 130 107 99 156 88 97 48 117 152 
151 92 13 104 106 19 128 58 52 51 
32 95 12 122 16 144 50 102 149 
